This is Ipopt version 3.10.0, running with linear solver ma27.

Number of nonzeros in equality constraint Jacobian...:        0
Number of nonzeros in inequality constraint Jacobian.:       16
Number of nonzeros in Lagrangian Hessian.............:        0

Total number of variables............................:       16
                     variables with only lower bounds:        0
                variables with lower and upper bounds:       16
                     variables with only upper bounds:        0
Total number of equality constraints.................:        0
Total number of inequality constraints...............:        1
        inequality constraints with only lower bounds:        0
   inequality constraints with lower and upper bounds:        0
        inequality constraints with only upper bounds:        1

iter    objective    inf_pr   inf_du lg(mu)  ||d||  lg(rg) alpha_du alpha_pr  ls
   0  2.6130072e-03 3.11e-01 9.96e-01   0.0 0.00e+00    -  0.00e+00 0.00e+00   0
   1  7.1178475e-03 0.00e+00 7.03e-01  -1.6 2.44e-02    -  1.00e+00 1.00e+00h  1
   2  6.0319042e-03 0.00e+00 7.75e-02  -2.7 5.67e-03    -  1.00e+00 1.00e+00h  1
   3  5.1083666e-03 0.00e+00 8.60e-02  -3.5 1.03e-02    -  1.00e+00 1.00e+00h  1
   4  4.8146193e-03 0.00e+00 6.11e-02  -4.5 1.54e-02    -  1.00e+00 1.00e+00h  1
   5  4.7091349e-03 0.00e+00 7.28e-02  -3.5 3.45e-02    -  1.00e+00 1.41e-01h  3
   6  4.5797620e-03 0.00e+00 1.75e-02  -4.2 6.73e-03    -  1.00e+00 1.00e+00h  1
   7  4.3505208e-03 2.76e-03 1.20e-02  -5.0 2.72e-02    -  1.00e+00 1.00e+00h  1
   8  4.3197005e-03 0.00e+00 7.23e-03  -4.6 2.24e-03    -  1.00e+00 1.00e+00h  1
   9  4.3209192e-03 0.00e+00 6.61e-03  -5.4 5.59e-03    -  1.00e+00 1.00e+00H  1
iter    objective    inf_pr   inf_du lg(mu)  ||d||  lg(rg) alpha_du alpha_pr  ls
  10  4.3075202e-03 0.00e+00 1.14e-02  -5.7 2.05e-03    -  1.00e+00 9.99e-01H  1
  11  4.3065810e-03 0.00e+00 1.18e-02  -7.1 8.75e-04    -  1.00e+00 1.56e-02h  7
  12  4.3206989e-03 0.00e+00 2.44e-02  -8.2 3.98e-04    -  1.00e+00 1.00e+00H  1
  13  4.3478805e-03 0.00e+00 5.13e-02  -7.0 4.59e-02    -  1.00e+00 1.70e-02H  1
  14  4.3471556e-03 0.00e+00 2.69e-02  -7.0 1.42e-03    -  1.00e+00 7.96e-03h  6
  15  4.3478833e-03 0.00e+00 2.27e-02  -7.0 3.56e-04    -  1.00e+00 1.22e-04h 14
  16  4.3471253e-03 0.00e+00 2.33e-02  -7.0 4.26e-05    -  9.50e-01 1.25e-01h  4

Number of Iterations....: 16

                                   (scaled)                 (unscaled)
Objective...............:   4.3471252996924283e-03    4.3471252996924283e-03
Dual infeasibility......:   2.3269298862220674e-02    2.3269298862220674e-02
Constraint violation....:   0.0000000000000000e+00    0.0000000000000000e+00
Complementarity.........:   3.6374110117300836e-07    3.6374110117300836e-07
Overall NLP error.......:   2.3269298862220674e-02    2.3269298862220674e-02


Number of objective function evaluations             = 61
Number of objective gradient evaluations             = 17
Number of equality constraint evaluations            = 0
Number of inequality constraint evaluations          = 61
Number of equality constraint Jacobian evaluations   = 0
Number of inequality constraint Jacobian evaluations = 17
Number of Lagrangian Hessian evaluations             = 0
Total CPU secs in IPOPT (w/o function evaluations)   =      0.308
Total CPU secs in NLP function evaluations           = 126099.225

EXIT: Stopping optimization at current point as requested by user.
